
Log started (V12.10.0.0) Sun Apr  4 07:32:28 2021


Problem 'asset.lp' read.
Read time = 0.01 sec. (0.25 ticks)
New value for default parallel thread count: 1
New value for time limit in seconds: 300
Version identifier: 12.10.0.0 | 2019-11-26 | 843d4de
CPXPARAM_Threads                                 1
CPXPARAM_TimeLimit                               300
Found incumbent of value -0.886340 after 0.00 sec. (0.11 ticks)
Tried aggregator 3 times.
MIP Presolve eliminated 570 rows and 281 columns.
MIP Presolve modified 2085 coefficients.
Aggregator did 772 substitutions.
Reduced MIP has 976 rows, 1053 columns, and 4736 nonzeros.
Reduced MIP has 932 binaries, 77 generals, 0 SOSs, and 0 indicators.
Presolve time = 0.01 sec. (9.92 ticks)
Probing fixed 111 vars, tightened 20 bounds.
Probing time = 0.01 sec. (4.17 ticks)
Cover probing fixed 0 vars, tightened 74 bounds.
Tried aggregator 1 time.
MIP Presolve eliminated 169 rows and 164 columns.
MIP Presolve modified 410 coefficients.
Reduced MIP has 807 rows, 889 columns, and 3623 nonzeros.
Reduced MIP has 788 binaries, 57 generals, 0 SOSs, and 0 indicators.
Presolve time = 0.00 sec. (3.52 ticks)
Probing time = 0.00 sec. (2.49 ticks)
Tried aggregator 1 time.
Detecting symmetries...
MIP Presolve modified 176 coefficients.
Reduced MIP has 807 rows, 889 columns, and 3623 nonzeros.
Reduced MIP has 788 binaries, 57 generals, 0 SOSs, and 0 indicators.
Presolve time = 0.00 sec. (2.54 ticks)
Probing time = 0.00 sec. (2.48 ticks)
Clique table members: 2346.
MIP emphasis: balance optimality and feasibility.
MIP search method: dynamic search.
Parallel mode: none, using 1 thread.
Root relaxation solution time = 0.01 sec. (11.98 ticks)

        Nodes                                         Cuts/
   Node  Left     Objective  IInf  Best Integer    Best Bound    ItCnt     Gap

*     0+    0                           -0.8863      487.6037              --- 
      0     0      420.4239   164       -0.8863      420.4239      562     --- 
      0     0      412.9421   164       -0.8863     Cuts: 301     1075     --- 
      0     0      401.6747   164       -0.8863     Cuts: 301     1590     --- 
      0     0      396.5279   164       -0.8863     Cuts: 255     1852     --- 
      0     0      393.6171   164       -0.8863     Cuts: 301     2025     --- 
      0     0      389.3197   164       -0.8863     Cuts: 233     2423     --- 
*     0+    0                          104.3799      389.3197           272.98%
      0     0        cutoff            104.3799      389.3197     2423  272.98%
Detecting symmetries...
      0     0      387.9416   164      104.3799     Cuts: 267     2613  271.66%
      0     0      386.9322   164      104.3799     Cuts: 198     2813  270.70%
      0     0      385.4252   164      104.3799     Cuts: 256     3065  269.25%
      0     0      383.2959   164      104.3799     Cuts: 212     3568  267.21%
      0     0      382.5536   164      104.3799     Cuts: 159     3742  266.50%
      0     0      381.6706   164      104.3799     Cuts: 145     3894  265.66%
      0     0      381.1516   164      104.3799     Cuts: 187     4065  265.16%
*     0+    0                          134.6688      381.1516           183.03%
*     0+    0                          196.4917      381.1516            93.98%
*     0+    0                          196.4922      381.1516            93.98%
      0     0        cutoff            196.4922      381.1516     4065   93.98%
      0     0      380.8096   164      196.4922     Cuts: 229     4213   93.80%
      0     0      380.5121   164      196.4922      Cuts: 67     4333   93.65%
      0     0      380.1060   164      196.4922     Cuts: 119     4420   93.45%
      0     0      379.9566   164      196.4922     Cuts: 108     4500   93.37%
      0     0      379.8905   164      196.4922     Cuts: 110     4574   93.34%
      0     0      379.8564   164      196.4922     Cuts: 121     4664   93.32%
      0     0      379.8183   164      196.4922      Cuts: 35     4733   93.30%
*     0+    0                          274.0389      379.8183            38.60%
*     0+    0                          274.0434      379.8183            38.60%
*     0+    0                          280.9795      379.8183            35.18%
*     0+    0                          280.9796      379.8183            35.18%
      0     0        cutoff            280.9796      379.8183     4733   35.18%
Detecting symmetries...
      0     2      379.8183   200      280.9796      379.8183     4733   35.18%
Elapsed time = 0.59 sec. (642.03 ticks, tree = 0.01 MB, solutions = 8)
     50    52      370.3268   118      280.9796      379.8175    10049   35.18%
*   110+  108                          281.8752      379.8175            34.75%
*   140+  128                          292.9385      379.8175            29.66%
*   143   127      integral     0      292.9391      379.8175    12429   29.66%
    170   153      348.2054    86      292.9391      379.8172    14978   29.66%
*   243+  214                          292.9403      379.8025            29.65%
    284   253      338.7082   105      292.9403      379.7884    20073   29.65%
    398   355      350.6527    93      292.9403      379.6464    26179   29.60%

Performing restart 1

Repeating presolve.
Tried aggregator 1 time.
MIP Presolve eliminated 1 rows and 0 columns.
MIP Presolve modified 456 coefficients.
Reduced MIP has 806 rows, 889 columns, and 3298 nonzeros.
Reduced MIP has 788 binaries, 57 generals, 0 SOSs, and 0 indicators.
Presolve time = 0.00 sec. (3.25 ticks)
Tried aggregator 1 time.
Reduced MIP has 806 rows, 889 columns, and 3298 nonzeros.
Reduced MIP has 788 binaries, 57 generals, 0 SOSs, and 0 indicators.
Presolve time = 0.00 sec. (2.53 ticks)
Represolve time = 0.02 sec. (17.26 ticks)
    465     0      365.6795   189      292.9403     Cuts: 276    31570   24.83%
    465     0      362.7049   189      292.9403     Cuts: 174    31910   23.82%
    465     0      360.0526   189      292.9403     Cuts: 146    32049   22.91%
    465     0      354.0199   189      292.9403     Cuts: 138    32362   20.85%
*   465+    0                          293.3602      354.0199            20.68%
    465     0        cutoff            293.3602      354.0199    32362   20.68%
    465     0      352.6527   189      293.3602     Cuts: 186    32524   20.21%
    465     0      352.0533   189      293.3602     Cuts: 170    32681   20.01%
    465     0      351.7407   189      293.3602      Cuts: 94    33024   19.90%
    465     0      351.5289   189      293.3602      Cuts: 81    33155   19.83%
    465     0      351.0825   189      293.3602     Cuts: 100    33383   19.68%
    465     0      350.7792   189      293.3602      Cuts: 99    33583   19.57%
    465     0      350.4363   189      293.3602      Cuts: 49    33779   19.46%
*   465+    0                          293.3608      350.4363            19.46%
*   465+    0                          298.4316      350.4363            17.43%
*   465+    0                          298.4320      350.4363            17.43%
    465     0        cutoff            298.4320      350.4363    33779   17.43%
    465     0      350.3149   189      298.4320      Cuts: 61    33857   17.39%
    465     0      350.1356   189      298.4320      Cuts: 59    34007   17.33%
    465     0      350.0253   189      298.4320      Cuts: 84    34086   17.29%
    465     0      349.7881   189      298.4320      Cuts: 54    34153   17.21%
    465     0      349.5974   189      298.4320      Cuts: 44    34240   17.14%
    465     0      349.5098   189      298.4320      Cuts: 56    34293   17.12%
    465     0      349.4419   189      298.4320      Cuts: 37    34352   17.09%
    465     0      349.4261   189      298.4320      Cuts: 32    34380   17.09%
    465     0      349.3952   189      298.4320      Cuts: 28    34418   17.08%
    465     0      349.3464   189      298.4320      Cuts: 19    34455   17.06%
    465     0      349.2710   189      298.4320      Cuts: 27    34501   17.04%
    465     0      349.2695   189      298.4320      Cuts: 29    34528   17.03%
    465     0      349.2215   189      298.4320      Cuts: 17    34567   17.02%
*   465+    0                          302.2921      349.2215            15.52%
*   465+    0                          302.2938      349.2215            15.52%
*   465+    0                          302.2946      349.2215            15.52%
    465     2      349.2215   177      302.2946      349.2041    34567   15.52%
    468     5      344.0795   164      302.2946      345.5519    35660   14.31%
    474    11      333.3387   140      302.2946      343.9202    36361   13.77%
    482    19      331.9304    94      302.2946      343.9202    37330   13.77%
    501    36      323.1555    93      302.2946      343.9202    38249   13.77%
*   535+   50                          309.4069      342.7123            10.76%
*   545+   54                          310.9853      342.7123            10.20%
*   635+   84                          317.8657      336.9310             6.00%
    683   117      323.3252   109      317.8657      334.7122    48345    5.30%
Elapsed time = 5.24 sec. (6144.23 ticks, tree = 0.10 MB, solutions = 22)
*   735+  151                          317.8660      334.4809             5.23%
*   905+  266                          317.8859      332.5418             4.61%
    908   271      329.9049   128      317.8859      332.4929    60915    4.60%
*   925+  265                          318.3707      332.4929             4.44%
*  1025+  268                          319.5589      331.6004             3.77%
*  1035+  261                          319.9474      331.4824             3.61%
*  1055+  279                          319.9475      331.4824             3.61%
   1149   308      326.3336   131      319.9475      329.5917    71656    3.01%
*  1155+  304                          319.9484      329.5555             3.00%
   1278   292      320.8124    81      319.9484      327.8196    80925    2.46%
*  1465+  272                          319.9488      326.0125             1.90%
   1564   222      320.9438    75      319.9488      324.5071    92269    1.42%
   1849   173      321.2678    59      319.9488      321.2681   104383    0.41%

GUB cover cuts applied:  10
Clique cuts applied:  137
Cover cuts applied:  11
Implied bound cuts applied:  51
Flow cuts applied:  13
Mixed integer rounding cuts applied:  77
Zero-half cuts applied:  46
Lift and project cuts applied:  14
Gomory fractional cuts applied:  12

Root node processing (before b&c):
  Real time             =    0.59 sec. (640.26 ticks)
Sequential b&c:
  Real time             =    8.89 sec. (10714.32 ticks)
                          ------------
Total (root+branch&cut) =    9.48 sec. (11354.58 ticks)

Solution pool: 31 solutions saved.

MIP - Integer optimal, tolerance (0.0001/1e-06):  Objective =  3.1994877071e+02
Current MIP best bound =  3.1996365494e+02 (gap = 0.0148842, 0.00%)
Solution time =    9.48 sec.  Iterations = 109092  Nodes = 2156 (184)
Deterministic time = 11354.58 ticks  (1197.66 ticks/sec)


Incumbent solution
Variable Name           Solution Value
F                           350.000000
f1                            0.921229
f2                           29.130000
y93                           1.000000
y147                          1.000000
y264                          1.000000
y176                          1.000000
y171                          1.000000
y81                           1.000000
y196                          1.000000
y53                           1.000000
y143                          1.000000
y132                          1.000000
y27                           1.000000
y70                           1.000000
y169                          1.000000
y181                          1.000000
y225                          1.000000
y227                          1.000000
y36                           1.000000
y272                          1.000000
y129                          1.000000
y190                          1.000000
s3                            6.000000
s9                            6.000000
s21                           6.000000
s22                           6.000000
s25                           6.000000
s51                           6.000000
s56                           6.000000
s58                           6.000000
s64                           6.000000
s90                           6.000000
s93                           6.596737
s130                          6.000000
s147                          6.444099
s149                          6.000000
s150                          6.000000
s173                          6.000000
s189                          6.000000
s197                          6.000000
s201                          6.000000
s264                          6.270921
s176                          6.515078
s75                           6.050000
s171                          6.887820
s68                           6.200000
s46                           6.220000
s105                          6.220000
s81                           7.243529
s196                          6.785824
s53                           6.969530
s143                          6.601425
s54                           6.630000
s79                           6.670000
s132                          7.373584
s27                           7.596498
s245                          6.730000
s69                           6.780000
s247                          6.840000
s70                           7.724416
s169                          7.566067
s168                          7.000000
s181                          7.829544
s225                          7.292615
s227                          7.250157
s36                           8.157470
s272                          8.026656
s129                          8.109551
s267                          7.180000
s190                          7.998732
x108x176x1                    2.000000
x5x132x1                      2.000000
x250x196x1                    1.000000
x164x171x1                    1.000000
x164x53x1                     1.000000
x210x81x1                     1.000000
x104x264x1                    1.000000
x194x147x2                    1.000000
x194x196x2                    1.000000
x250x53x2                     1.000000
x76x147x2                     1.000000
x208x93x2                     1.000000
x134x225x2                    1.000000
x246x227x2                    1.000000
x104x264x2                    1.000000
x52x143x3                     2.000000
x55x93x3                      1.000000
x55x225x3                     1.000000
x76x169x3                     1.000000
x210x227x3                    1.000000
x208x171x3                    1.000000
x134x81x3                     1.000000
x246x27x3                     1.000000
x93x129x2                     1.000000
x93x190x3                     1.000000
x147x70x2                     2.000000
x264x27x1                     1.000000
x264x169x2                    1.000000
x176x181x1                    1.000000
x176x190x1                    1.000000
x171x36x1                     1.000000
x171x0x3                      1.000000
x81x0x1                       1.000000
x81x0x3                       1.000000
x196x36x1                     1.000000
x196x272x2                    1.000000
x53x0x1                       1.000000
x53x129x2                     1.000000
x143x181x3                    1.000000
x143x272x3                    1.000000
x132x0x1                      2.000000
x27x0x1                       1.000000
x27x0x3                       1.000000
x70x0x2                       2.000000
x169x0x2                      1.000000
x169x0x3                      1.000000
x181x0x1                      1.000000
x181x0x3                      1.000000
x225x0x2                      1.000000
x225x0x3                      1.000000
x227x0x2                      1.000000
x227x0x3                      1.000000
x36x0x1                       2.000000
x272x0x2                      1.000000
x272x0x3                      1.000000
x129x0x2                      2.000000
x190x0x1                      1.000000
x190x0x3                      1.000000
s108                          4.936144
z108z176z1                    1.000000
z108z132z1                    1.000000
z108z168z1                    1.000000
z108z36z1                     1.000000
s52                           4.848515
z52z143z3                     1.000000
s5                            5.098426
z5z132z1                      1.000000
s194                          5.113514
z194z147z2                    1.000000
z194z196z2                    1.000000
z194z70z2                     1.000000
z194z129z2                    1.000000
s250                          5.134453
z250z196z1                    1.000000
z250z53z2                     1.000000
z250z70z2                     1.000000
z250z168z1                    1.000000
z250z36z1                     1.000000
z250z129z2                    1.000000
s55                           5.209138
z55z93z3                      1.000000
z55z225z3                     1.000000
s164                          5.527404
z164z171z1                    1.000000
z164z53z1                     1.000000
z164z168z1                    1.000000
z164z36z1                     1.000000
s76                           5.281911
z76z147z2                     1.000000
z76z70z2                      1.000000
z76z169z3                     1.000000
z76z129z2                     1.000000
s210                          5.685889
z210z81z1                     1.000000
z210z227z3                    1.000000
s208                          5.360000
z208z93z2                     1.000000
z208z171z3                    1.000000
z208z129z2                    1.000000
s134                          5.790000
z134z81z3                     1.000000
z134z225z2                    1.000000
z134z129z2                    1.000000
s246                          5.860000
z246z27z3                     1.000000
z246z227z2                    1.000000
s104                          4.764950
z104z264z1                    1.000000
z104z264z2                    1.000000
z104z54z2                     1.000000
z104z132z1                    1.000000
z104z69z2                     1.000000
z104z70z2                     1.000000
z104z168z1                    1.000000
z104z36z1                     1.000000
z104z129z2                    1.000000
z93z129z2                     1.000000
z93z190z3                     1.000000
z147z70z2                     1.000000
z264z27z1                     1.000000
z264z169z2                    1.000000
z176z181z1                    1.000000
z176z36z1                     1.000000
z176z190z1                    1.000000
z171z36z1                     1.000000
z196z36z1                     1.000000
z196z272z2                    1.000000
z53z129z2                     1.000000
z143z181z3                    1.000000
z143z272z3                    1.000000
All other variables in the range 1-2109 are 0.
